
Log started (V11.0.0) Wed Apr 16 14:02:15 2008

Tried aggregator 1 time.
Reduced MIP has 150 rows, 5001 columns, and 10050 nonzeros.
Presolve time =    0.05 sec.
Clique table members: 100.
MIP emphasis: balance optimality and feasibility.
MIP search method: dynamic search.
Parallel mode: none, using 1 thread.
Root relaxation solution time =    0.16 sec.

        Nodes                                         Cuts/
   Node  Left     Objective  IInf  Best Integer     Best Node    ItCnt     Gap

*     0+    0                         5533.0000       24.9128      733   99.55%
*     0+    0                           43.0000       24.9128      733   42.06%
      0     0       25.0000    86       43.0000      Fract: 4      745   41.86%
*     0+    0                           39.0000       25.0000      745   35.90%
      0     0       25.0000    94       39.0000       25.0000      778   35.90%
*     0+    0                           37.0000       25.0000      778   32.43%
      0     0       25.0619    96       37.0000       25.0619      808   32.27%
*     0+    0                           36.0000       25.0619      808   30.38%
      0     0       25.7931   129       36.0000   MIRcuts: 43      963   28.35%
*     0+    0                           35.0000       25.7931      963   26.31%
      0     0       26.0380   147       35.0000      Cuts: 31     1054   25.61%
      0     0       26.1282   166       35.0000   MIRcuts: 25     1150   25.35%
      0     0       26.1931   177       35.0000   MIRcuts: 22     1227   25.16%
*     0+    0                           34.0000       26.1931     1227   22.96%
      0     0       26.2320   185       34.0000   MIRcuts: 15     1287   22.85%
      0     0       26.2810   181       34.0000   MIRcuts: 13     1368   22.70%
      0     0       26.2863   192       34.0000   MIRcuts: 11     1395   22.69%
      0     0       26.3077   194       34.0000    MIRcuts: 8     1432   22.62%
      0     0       26.3168   200       34.0000       Cuts: 4     1456   22.60%
      0     0       26.3174   197       34.0000    MIRcuts: 1     1473   22.60%
*     0+    0                           33.0000       26.3174     1473   20.25%
*     0+    0                           32.0000       26.3174     1473   17.76%
*     0+    0                           31.0000       26.3174     1473   15.11%

Repeating presolve.
Tried aggregator 1 time.
MIP Presolve eliminated 0 rows and 3826 columns.
MIP Presolve modified 400 coefficients.
Reduced MIP has 150 rows, 1175 columns, and 2398 nonzeros.
Tried aggregator 1 time.
Represolve time =    0.06 sec.
Clique table members: 333.
MIP emphasis: balance optimality and feasibility.
MIP search method: dynamic search.
Parallel mode: none, using 1 thread.
Root relaxation solution time =    0.05 sec.

        Nodes                                         Cuts/
   Node  Left     Objective  IInf  Best Integer     Best Node    ItCnt     Gap

      0     0       27.0000   131       31.0000       27.0000      471   12.90%
      0     2       27.0000   131       31.0000       27.0000      471   12.90%
    100    96       29.0000    48       31.0000       27.0000     4448   12.90%
*   175   133      integral     0       30.0000       27.0000     7837   10.00%
    200   108        cutoff             30.0000       27.0000    12717   10.00%
    300     8        cutoff             30.0000       29.0000    21099    3.33%

Clique cuts applied:  2
Cover cuts applied:  88
Mixed integer rounding cuts applied:  85
Gomory fractional cuts applied:  3

Solution pool: 11 solutions saved.

MIP - Integer optimal solution:  Objective = 3.0000000000e+001
Solution time =    5.52 sec.  Iterations = 21537  Nodes = 309


Incumbent solution
Variable Name           Solution Value
Cmax                         30.000000
X_1_42                        1.000000
X_2_22                        1.000000
X_3_37                        1.000000
X_4_50                        1.000000
X_5_28                        1.000000
X_6_21                        1.000000
X_7_5                         1.000000
X_8_8                         1.000000
X_9_18                        1.000000
X_10_37                       1.000000
X_11_6                        1.000000
X_12_48                       1.000000
X_13_34                       1.000000
X_14_36                       1.000000
X_15_47                       1.000000
X_16_30                       1.000000
X_17_41                       1.000000
X_18_29                       1.000000
X_19_44                       1.000000
X_20_3                        1.000000
X_21_32                       1.000000
X_22_19                       1.000000
X_23_31                       1.000000
X_24_48                       1.000000
X_25_2                        1.000000
X_26_15                       1.000000
X_27_46                       1.000000
X_28_12                       1.000000
X_29_21                       1.000000
X_30_49                       1.000000
X_31_45                       1.000000
X_32_20                       1.000000
X_33_13                       1.000000
X_34_17                       1.000000
X_35_25                       1.000000
X_36_15                       1.000000
X_37_1                        1.000000
X_38_24                       1.000000
X_39_13                       1.000000
X_40_36                       1.000000
X_41_40                       1.000000
X_42_16                       1.000000
X_43_38                       1.000000
X_44_17                       1.000000
X_45_41                       1.000000
X_46_7                        1.000000
X_47_32                       1.000000
X_48_24                       1.000000
X_49_20                       1.000000
X_50_38                       1.000000
X_51_27                       1.000000
X_52_16                       1.000000
X_53_2                        1.000000
X_54_39                       1.000000
X_55_42                       1.000000
X_56_34                       1.000000
X_57_35                       1.000000
X_58_23                       1.000000
X_59_11                       1.000000
X_60_26                       1.000000
X_61_50                       1.000000
X_62_6                        1.000000
X_63_19                       1.000000
X_64_8                        1.000000
X_65_7                        1.000000
X_66_43                       1.000000
X_67_27                       1.000000
X_68_49                       1.000000
X_69_25                       1.000000
X_70_5                        1.000000
X_71_35                       1.000000
X_72_10                       1.000000
X_73_26                       1.000000
X_74_10                       1.000000
X_75_14                       1.000000
X_76_22                       1.000000
X_77_9                        1.000000
X_78_12                       1.000000
X_79_33                       1.000000
X_80_24                       1.000000
X_81_17                       1.000000
X_82_47                       1.000000
X_83_3                        1.000000
X_84_29                       1.000000
X_85_30                       1.000000
X_86_44                       1.000000
X_87_11                       1.000000
X_88_9                        1.000000
X_89_28                       1.000000
X_90_43                       1.000000
X_91_18                       1.000000
X_92_31                       1.000000
X_93_4                        1.000000
X_94_33                       1.000000
X_95_40                       1.000000
X_96_14                       1.000000
X_97_45                       1.000000
X_98_46                       1.000000
X_99_39                       1.000000
X_100_1                       1.000000
All other variables in the range 1-5001 are 0.
